(set-logic HORN)
(declare-fun inv ((_ BitVec 32) (_ BitVec 32) (_ BitVec 32) (_ BitVec 32) ) Bool)
(assert (forall ((i (_ BitVec 32)) (j (_ BitVec 32)) (k (_ BitVec 32)) (l (_ BitVec 32))) 
       (=> ( and ( = j (_ bv0 32) ) ( = i l ) ) (inv i j k l))))
(assert (forall ((i (_ BitVec 32)) (j (_ BitVec 32)) (k (_ BitVec 32)) (l (_ BitVec 32)) (i! (_ BitVec 32)) (j! (_ BitVec 32)) (k! (_ BitVec 32)) (l! (_ BitVec 32))) 
       (=> (and (inv i j k l) ( and ( bvslt j (_ bv1000 32) ) ( = i! ( bvadd i k ) ) ( = j! ( bvadd j (_ bv1 32) ) ) ( = k! k ) ( = l! l ) )) (inv i! j! k! l!))))
(assert (forall ((i (_ BitVec 32)) (j (_ BitVec 32)) (k (_ BitVec 32)) (l (_ BitVec 32))) 
       (=> (inv i j k l) ( or ( bvslt j (_ bv1000 32) ) ( = i ( bvadd l ( bvmul k j ) ) ) ))))
(check-sat)
